unsat
(:conflicts            1
 :max-generation       1
 :max-memory           25.85
 :memory               22.02
 :mk-bool-var          2582
 :mk-clause            221
 :mk-clause-binary     891
 :num-allocs           31227378
 :num-checks           1
 :quant-instantiations 279
 :rlimit-count         425893
 :time                 0.05)
